proyfinal/src/viki/013/experimentInOfficeAgust.take6.output/3ff10c0b-ac30-459d-ad37-14151fe2336c.als.out
Reading from standard input... Use '--help' for help.
============================[ Problem Statistics ]=============================
|                                                                             |
|  Number of variables:         87638                                         |
|  Number of clauses:          161767                                         |
|  Parse time:                   0.03 s                                       |
|                                                                             |
============================[ Search Statistics ]==============================
| Conflicts |          ORIGINAL         |          LEARNT          | Progress |
|           |    Vars  Clauses Literals |    Limit  Clauses Lit/Cl |          |
===============================================================================
|       100 |   63223   108245   270470 |    39689      100     26 | 27.859 % |
|       250 |   63223   108245   270470 |    43658      250     50 | 27.859 % |
|       475 |   63223   108245   270470 |    48024      475     77 | 27.859 % |
|       812 |   63200   108109   270169 |    52827      809     87 | 27.885 % |
|      1318 |   63200   108109   270169 |    58109     1315     85 | 27.885 % |
|      2077 |   63160   107943   269787 |    63920     1450     70 | 27.931 % |
|      3216 |   63160   107943   269787 |    70312     2589    122 | 27.931 % |
|      4924 |   63124   107811   269439 |    77344     4267    103 | 27.972 % |
|      7486 |   63098   107703   269192 |    85078     6828     89 | 28.002 % |
|     11330 |   63077   107616   268993 |    93586    10669     83 | 28.026 % |
===============================================================================
restarts              : 53
conflicts             : 12324          (6314 /sec)
decisions             : 52098          (0.00 % random) (26693 /sec)
propagations          : 19501952       (9991931 /sec)
conflict literals     : 1005275        (49.28 % deleted)
Memory used           : 35.37 MB
CPU time              : 1.95177 s

INDETERMINATE
